NAME : A045-06f.2303.tour
COMMENT : Cost = 0_2303
COMMENT : Found by LKH [Keld Helsgaun] Tue Sep 12 09:35:35 2017
TYPE : TOUR
DIMENSION : 50
TOUR_SECTION
1
32
2
3
47
40
39
36
33
29
26
27
28
34
50
31
30
25
43
24
23
19
17
45
7
11
44
12
13
14
16
18
15
46
22
20
21
8
10
9
42
48
41
35
37
38
49
4
5
6
-1
EOF
